(set-info :smt-lib-version 2.6)
(set-logic QF_UFLRA)
(set-info :source |
MathSat group

|)
(set-info :category "random")
(set-info :status sat)
(declare-fun x0 () Real)
(declare-fun x1 () Real)
(declare-fun x2 () Real)
(declare-fun x3 () Real)
(declare-fun x4 () Real)
(declare-fun x5 () Real)
(declare-fun x6 () Real)
(declare-fun x7 () Real)
(declare-fun x8 () Real)
(declare-fun x9 () Real)
(declare-fun x10 () Real)
(declare-fun x11 () Real)
(declare-fun x12 () Real)
(declare-fun x13 () Real)
(declare-fun x14 () Real)
(declare-fun x15 () Real)
(declare-fun x16 () Real)
(declare-fun x17 () Real)
(declare-fun x18 () Real)
(declare-fun x19 () Real)
(declare-fun x20 () Real)
(declare-fun x21 () Real)
(declare-fun x22 () Real)
(declare-fun x23 () Real)
(declare-fun x24 () Real)
(declare-fun x25 () Real)
(declare-fun x26 () Real)
(declare-fun x27 () Real)
(declare-fun x28 () Real)
(declare-fun x29 () Real)
(declare-fun f0_1 (Real) Real)
(declare-fun f0_2 (Real Real) Real)
(declare-fun f0_3 (Real Real Real) Real)
(declare-fun f0_4 (Real Real Real Real) Real)
(declare-fun P0 () Bool)
(declare-fun P1 () Bool)
(declare-fun P2 () Bool)
(declare-fun P3 () Bool)
(declare-fun P4 () Bool)
(declare-fun P5 () Bool)
(declare-fun P6 () Bool)
(declare-fun P7 () Bool)
(declare-fun P8 () Bool)
(declare-fun P9 () Bool)
(declare-fun P10 () Bool)
(declare-fun P11 () Bool)
(declare-fun P12 () Bool)
(declare-fun P13 () Bool)
(declare-fun P14 () Bool)
(declare-fun P15 () Bool)
(declare-fun P16 () Bool)
(declare-fun P17 () Bool)
(declare-fun P18 () Bool)
(declare-fun P19 () Bool)
(declare-fun P20 () Bool)
(declare-fun P21 () Bool)
(declare-fun P22 () Bool)
(declare-fun P23 () Bool)
(declare-fun P24 () Bool)
(declare-fun P25 () Bool)
(declare-fun P26 () Bool)
(declare-fun P27 () Bool)
(declare-fun P28 () Bool)
(declare-fun P29 () Bool)
(assert (let ((?v_83 (* 34 x2)) (?v_17 (* 27 x25)) (?v_135 (<= (- (- (* 4 x28) (* 41 x14)) (* 12 x19)) 14)) (?v_13 (* 28 x5))) (let ((?v_62 (< (- (- ?v_83 (* 32 x5)) ?v_13) 8)) (?v_15 (* 18 x21))) (let ((?v_115 (= (- (+ (* 29 x3) (* 8 x28)) ?v_15) 38)) (?v_104 (distinct (f0_1 x3) x15)) (?v_3 (f0_1 x1))) (let ((?v_72 (distinct ?v_3 (f0_2 x15 x10))) (?v_48 (distinct (f0_2 x4 x12) x26)) (?v_37 (f0_2 x21 x3))) (let ((?v_80 (= (f0_2 x1 x28) ?v_37)) (?v_108 (= (f0_2 x24 x1) (f0_2 x29 x14))) (?v_52 (= x2 (f0_1 x18))) (?v_100 (distinct x8 (f0_1 x10))) (?v_5 (= (f0_2 x0 x18) x24)) (?v_91 (= x17 (f0_2 x28 x13))) (?v_46 (= (f0_1 x27) x2)) (?v_24 (distinct (f0_2 x24 x3) (f0_2 x7 x8))) (?v_26 (distinct (f0_2 x15 x11) x27)) (?v_49 (= x14 (f0_1 x29))) (?v_120 (distinct x5 x25)) (?v_54 (distinct (f0_2 x6 x6) x5)) (?v_118 (distinct (f0_2 x10 x15) (f0_2 x9 x19))) (?v_64 (= (f0_1 x11) (f0_2 x13 x17))) (?v_51 (= (f0_2 x26 x23) (f0_1 x28))) (?v_32 (f0_1 x17))) (let ((?v_142 (distinct ?v_32 (f0_1 x25))) (?v_81 (= x26 x0)) (?v_7 (f0_1 x21))) (let ((?v_22 (= ?v_7 x5)) (?v_79 (distinct x9 (f0_2 x18 x8))) (?v_86 (distinct x1 (f0_1 x16))) (?v_33 (distinct (f0_1 x2) ?v_32)) (?v_35 (= x18 (f0_1 x0))) (?v_20 (distinct ?v_32 x10)) (?v_12 (distinct (f0_1 x22) x17)) (?v_28 (distinct ?v_37 (f0_1 x20))) (?v_31 (= ?v_3 ?v_7)) (?v_82 (not P12)) (?v_1 (not P17)) (?v_98 (not P15)) (?v_6 (not ?v_46)) (?v_92 (not ?v_24)) (?v_11 (not P16)) (?v_124 (not ?v_72)) (?v_43 (not P21)) (?v_2 (not P10)) (?v_9 (not P20)) (?v_105 (not (= x25 x19))) (?v_130 (not ?v_115)) (?v_38 (not ?v_48)) (?v_19 (not ?v_51)) (?v_119 (not P0)) (?v_89 (not P24)) (?v_36 (not ?v_5))) (let ((?v_78 (not ?v_12)) (?v_41 (not P11)) (?v_23 (not ?v_108)) (?v_30 (not P4)) (?v_29 (not ?v_26)) (?v_34 (not ?v_52)) (?v_69 (not ?v_20)) (?v_47 (not P23)) (?v_21 (not P22)) (?v_88 (not P28)) (?v_58 (not P29)) (?v_65 (not ?v_22)) (?v_27 (not P27)) (?v_102 (not P18)) (?v_90 (not P8)) (?v_121 (not ?v_28)) (?v_85 (not ?v_135)) (?v_134 (not ?v_80)) (?v_145 (not ?v_142)) (?v_95 (not ?v_120)) (?v_126 (not ?v_49)) (?v_56 (not ?v_35)) (?v_133 (not ?v_54)) (?v_73 (not ?v_118)) (?v_59 (not P2)) (?v_96 (not ?v_62)) (?v_149 (not ?v_33)) (?v_67 (not P19)) (?v_66 (not ?v_64)) (?v_109 (not P25)) (?v_127 (not ?v_81)) (?v_106 (not P1)) (?v_93 (not ?v_91)) (?v_140 (not P3)) (?v_147 (not ?v_86)) (?v_112 (not ?v_100)) (?v_137 (not P5)) (?v_136 (not P6)) (?v_138 (not ?v_31)) (?v_144 (not P13)) (?v_153 (not P14)) (?v_143 (not ?v_104)) (?v_146 (not P7)) (?v_150 (not P26)) (?v_151 (not ?v_79)) (?v_77 (< (+ ?v_17 (* 39 x14)) 21))) (let ((?v_131 (not ?v_77)) (?v_99 (<= (- (- (* (- 13) x16) (* 4 x6)) (* 41 x20)) (- 5))) (?v_4 (<= (- (+ (* (- 42) x22) (* 3 x15)) (* 6 x29)) (- 6))) (?v_132 (distinct (- (- (* 33 x1) (* 4 x22)) (* 31 x25)) (- 26))) (?v_0 (distinct (+ (* (- 11) x18) (* 15 x8) (* 12 x1)) 25)) (?v_16 (= (- (- (* 26 x0) (* 18 x6)) ?v_13) (- 12))) (?v_110 (< (+ (* (- 3) x22) (* 39 x12) (* 17 x15)) 25))) (let ((?v_70 (not ?v_110)) (?v_61 (< (- (- (* (- 38) x8) (* 8 x25)) 0) 27))) (let ((?v_10 (not ?v_61)) (?v_97 (< (+ (- (* 23 x19) (* 11 x6)) (* 18 x11)) (- 35)))) (let ((?v_44 (not ?v_97)) (?v_8 (< (- (- (* (- 20) x16) (* 32 x17)) x7) (- 40)))) (let ((?v_18 (not ?v_8)) (?v_50 (distinct (- (* (- 15) x22) (* 34 x13)) 17))) (let ((?v_63 (not ?v_50)) (?v_14 (< (- (+ (* (- 19) x19) (* 11 x4)) (* 22 x8)) 19)) (?v_103 (distinct (- (- (* (- 28) x9) (* 2 x2)) (* 34 x21)) 43))) (let ((?v_84 (not ?v_103)) (?v_42 (< (+ (* (- 27) x9) (* 38 x12) ?v_15) 27))) (let ((?v_45 (not ?v_42)) (?v_55 (<= (+ x22 (* 18 x27) (* 18 x28)) (- 5)))) (let ((?v_125 (not ?v_55)) (?v_25 (< (+ (- (* 29 x19) (* 36 x10)) ?v_17) (- 38))) (?v_39 (< (+ (* (- 4) x4) (* 19 x17)) (- 20))) (?v_76 (<= (+ (* (- 25) x22) (* 41 x7) (* 27 x23)) (- 27))) (?v_114 (< (+ (* (- 1) x25) (* 12 x29) (* 35 x17)) 33))) (let ((?v_53 (not ?v_114)) (?v_57 (<= (- (- (* (- 11) x25) (* 19 x15)) (* 14 x17)) 3)) (?v_75 (not ?v_14)) (?v_87 (< (+ (- (* (- 1) x23) (* 35 x14)) (* 2 x10)) (- 13))) (?v_40 (<= (+ (- (* (- 16) x23) (* 14 x14)) (* 24 x5)) 23))) (let ((?v_94 (not ?v_40)) (?v_129 (not ?v_39)) (?v_71 (< (- (+ (* (- 2) x15) (* 9 x6)) (* 10 x3)) 43)) (?v_74 (<= (- (+ (* (- 31) x10) (* 27 x15)) (* 7 x27)) 30))) (let ((?v_141 (not ?v_74)) (?v_122 (not ?v_0)) (?v_60 (not ?v_57)) (?v_68 (< (+ (- (* (- 25) x14) (* 13 x25)) (* 34 x4)) (- 6)))) (let ((?v_117 (not ?v_68)) (?v_107 (not ?v_76)) (?v_116 (<= (+ (- (* 16 x14) ?v_83) (* 8 x1)) (- 42)))) (let ((?v_111 (not ?v_116)) (?v_113 (not ?v_16)) (?v_148 (not ?v_25)) (?v_101 (not ?v_4)) (?v_123 (not ?v_99)) (?v_139 (<= (- (+ (* (- 5) x27) (* 18 x15)) (* 40 x5)) 6))) (let ((?v_128 (not ?v_139)) (?v_154 (not ?v_132)) (?v_152 (not ?v_87))) (and (and (and (and (and (and (and (and (and (and (and (and (and (and (and (and (and (and (and (and (and (and (and (and (and (and (and (and (and (and (and (and (and (and (and (and (and (and (and (and (and (and (and (and (and (and (and (and (and (and (and (and (and (and (and (and (and (and (and (and (and (and (and (and (and (and (and (and (and (and (and (and (and (and (and (and (and (and (and (and (and (and (and (and (and (and (and (and (and (and (and (and (and (and (and (and (and (and (and (and (and (and (and (and (and (and (and (and (and (and (and (and (and (and (and (and (and (and (and (and (and (and (and (and (and (and (and (and (and (and (and (and (and (and (and (and (and (and (and (and (and (and (and (and (and (and (and (and (and (and (and (and (and (and (and (and (and (and (and (and (and (and (and (and (and (and (and (and (and (and (and (and (and (and (and (and (and (and (and (and (and (and (and (and (and (and (and (and (and (and (and (and (and (and (and (and (and (and (and (and (and (and (and (and (and (and (and (and (and (and (and (and (and (and (and (and (and (and (and (and (and (and (and (and (and (and (and (and (and (and (and (and (and (and (and (and (and (and (and (and (and (and (and (and (and (and (and (and (and (and (and (and (and (and (and (and (and (and (and (and (and (and (and (and (and (and (and (and (and (and (and (and (and (and (and (and (and (and (and (and (and (and (and (and (and (and (and (and (and (and (and (and (and (and (and (and (and (and (and (and (and (and (and (and (and (and (and (and (and (and (and (and (and (and (and (and (and (and (and (and (and (and (and (and (and (and (and (and (and (and (and (and (and (and (and (and (and (and (and (and (and (and (and (and (and (and (and (and (and (and (and (and (and (and (and (and (and (and (and (or (or ?v_49 ?v_82) ?v_86) (or (or P10 ?v_12) ?v_99)) (or (or ?v_4 ?v_54) ?v_1)) (or (or ?v_98 ?v_6) ?v_132)) (or (or ?v_92 ?v_28) ?v_11)) (or (or ?v_124 ?v_0) ?v_43)) (or (or P2 ?v_2) ?v_16)) (or (or ?v_70 ?v_9) ?v_105)) (or (or ?v_130 ?v_38) ?v_19)) (or (or ?v_10 ?v_44) ?v_0)) (or (or ?v_1 ?v_2) ?v_119)) (or (or ?v_31 ?v_4) P27)) (or (or ?v_5 P21) ?v_8)) (or (or ?v_89 P16) P2)) (or (or ?v_36 P25) ?v_6)) (or (or ?v_22 ?v_35) ?v_18)) (or (or ?v_9 ?v_10) ?v_63)) (or (or P23 ?v_11) ?v_12)) (or (or ?v_78 ?v_14) ?v_41)) (or (or ?v_84 ?v_62) P29)) (or (or P22 ?v_14) ?v_45)) (or (or ?v_81 P5) ?v_77)) (or (or ?v_125 P7) ?v_16)) (or (or ?v_23 ?v_25) ?v_30)) (or (or ?v_29 ?v_20) ?v_39)) (or (or ?v_18 ?v_19) ?v_14)) (or (or ?v_34 ?v_69) ?v_47)) (or (or ?v_21 ?v_21) P4)) (or (or ?v_76 P23) ?v_88)) (or (or ?v_58 ?v_100) ?v_65)) (or (or ?v_23 ?v_53) ?v_24)) (or (or ?v_25 ?v_27) P8)) (or (or ?v_26 P12) ?v_102)) (or (or ?v_27 ?v_90) ?v_91)) (or (or P25 ?v_1) ?v_121)) (or (or ?v_29 ?v_30) ?v_85)) (or (or ?v_57 ?v_31) ?v_75)) (or (or ?v_33 ?v_33) ?v_64)) (or (or P2 ?v_87) ?v_34)) (or (or P28 ?v_35) ?v_36)) (or (or P8 ?v_134) P22)) (or (or ?v_38 ?v_94) ?v_129)) (or (or P23 ?v_145) ?v_95)) (or (or ?v_40 ?v_41) ?v_42)) (or (or ?v_34 ?v_43) ?v_39)) (or (or ?v_12 ?v_44) ?v_45)) (or (or P0 ?v_46) ?v_47)) (or (or ?v_71 ?v_48) P16)) (or (or ?v_40 ?v_126) ?v_141)) (or (or ?v_56 ?v_23) ?v_50)) (or (or ?v_51 ?v_36) ?v_52)) (or (or ?v_5 ?v_53) ?v_133)) (or (or P18 ?v_6) ?v_27)) (or (or ?v_122 ?v_55) ?v_40)) (or (or ?v_56 ?v_42) ?v_60)) (or (or ?v_73 P27) ?v_58)) (or (or P12 ?v_48) ?v_59)) (or (or P15 ?v_47) ?v_117)) (or (or ?v_59 ?v_19) P24)) (or (or ?v_60 P11) ?v_61)) (or (or ?v_96 P16) ?v_63)) (or (or ?v_149 ?v_67) ?v_31)) (or (or ?v_34 P19) P7)) (or (or ?v_22 P26) ?v_66)) (or (or ?v_62 ?v_20) ?v_65)) (or (or ?v_79 ?v_66) ?v_11)) (or (or ?v_67 ?v_68) P1)) (or (or ?v_69 ?v_70) ?v_71)) (or (or ?v_9 ?v_72) ?v_73)) (or (or ?v_39 P5) ?v_74)) (or (or ?v_75 ?v_107) P10)) (or (or ?v_25 ?v_109) ?v_131)) (or (or ?v_78 P22) ?v_1)) (or (or ?v_19 ?v_79) ?v_5)) (or (or ?v_80 ?v_56) ?v_127)) (or (or ?v_82 ?v_111) ?v_84)) (or (or P20 ?v_85) ?v_41)) (or (or ?v_60 P26) ?v_86)) (or (or ?v_85 P14) P19)) (or (or ?v_87 ?v_88) ?v_89)) (or (or P14 ?v_4) ?v_71)) (or (or ?v_20 ?v_88) ?v_70)) (or (or P17 ?v_90) ?v_113)) (or (or ?v_56 ?v_87) ?v_27)) (or (or ?v_28 ?v_28) ?v_62)) (or (or ?v_148 P2) ?v_12)) (or (or ?v_101 ?v_91) ?v_61)) (or (or ?v_41 ?v_92) ?v_106)) (or (or ?v_93 ?v_64) ?v_22)) (or (or ?v_10 ?v_33) P20)) (or (or ?v_65 ?v_93) ?v_41)) (or (or ?v_94 ?v_94) ?v_95)) (or (or P29 ?v_47) ?v_71)) (or (or ?v_96 ?v_97) P14)) (or (or ?v_67 P13) ?v_98)) (or (or ?v_140 P4) ?v_16)) (or (or ?v_123 ?v_100) ?v_61)) (or (or ?v_75 ?v_62) P17)) (or (or ?v_52 ?v_9) ?v_101)) (or (or ?v_104 ?v_102) ?v_29)) (or (or ?v_103 ?v_33) ?v_104)) (or (or ?v_105 ?v_106) ?v_11)) (or (or ?v_68 ?v_147) ?v_107)) (or (or P5 ?v_30) ?v_19)) (or (or ?v_107 ?v_56) ?v_79)) (or (or ?v_112 ?v_19) ?v_108)) (or (or ?v_79 ?v_137) ?v_90)) (or (or ?v_51 ?v_109) ?v_110)) (or (or ?v_2 P19) ?v_111)) (or (or (not ?v_71) ?v_112) ?v_136)) (or (or ?v_98 P17) P27)) (or (or ?v_25 ?v_71) ?v_43)) (or (or ?v_64 ?v_51) P11)) (or (or P5 ?v_113) ?v_110)) (or (or ?v_114 ?v_115) ?v_116)) (or (or ?v_138 P15) P25)) (or (or ?v_34 ?v_8) ?v_117)) (or (or ?v_118 P4) ?v_1)) (or (or ?v_98 P5) ?v_52)) (or (or ?v_95 ?v_144) ?v_105)) (or (or ?v_74 ?v_6) ?v_106)) (or (or ?v_16 ?v_1) ?v_100)) (or (or P18 ?v_23) ?v_4)) (or (or ?v_20 ?v_39) ?v_115)) (or (or ?v_119 ?v_120) P4)) (or (or ?v_92 ?v_57) ?v_121)) (or (or ?v_60 ?v_51) ?v_122)) (or (or ?v_42 ?v_20) ?v_106)) (or (or P2 P17) ?v_106)) (or (or ?v_123 ?v_30) ?v_124)) (or (or ?v_59 ?v_76) ?v_85)) (or (or ?v_128 ?v_56) ?v_53)) (or (or ?v_5 ?v_103) ?v_9)) (or (or ?v_34 ?v_94) ?v_18)) (or (or P10 ?v_25) P27)) (or (or ?v_117 P22) ?v_106)) (or (or P22 ?v_153) ?v_117)) (or (or ?v_93 P7) ?v_114)) (or (or P11 ?v_34) P26)) (or (or ?v_95 ?v_60) ?v_125)) (or (or ?v_88 ?v_106) ?v_126)) (or (or ?v_127 P12) ?v_126)) (or (or P0 ?v_93) ?v_105)) (or (or ?v_54 ?v_99) P20)) (or (or ?v_128 ?v_24) ?v_143)) (or (or P15 P5) ?v_20)) (or (or ?v_119 ?v_63) ?v_42)) (or (or ?v_129 ?v_130) ?v_85)) (or (or P11 ?v_131) P2)) (or (or ?v_54 P17) ?v_36)) (or (or ?v_132 ?v_52) ?v_131)) (or (or ?v_81 ?v_9) P27)) (or (or ?v_133 ?v_77) ?v_80)) (or (or ?v_24 ?v_115) ?v_117)) (or (or ?v_110 ?v_84) P5)) (or (or ?v_49 ?v_56) ?v_134)) (or (or ?v_50 P19) ?v_43)) (or (or ?v_50 ?v_98) ?v_57)) (or (or ?v_39 ?v_126) ?v_8)) (or (or ?v_146 P20) ?v_130)) (or (or ?v_35 ?v_43) ?v_135)) (or (or P6 ?v_51) ?v_53)) (or (or ?v_91 ?v_92) ?v_100)) (or (or ?v_18 ?v_30) ?v_136)) (or (or P16 ?v_30) ?v_108)) (or (or P19 ?v_112) ?v_97)) (or (or ?v_120 ?v_47) ?v_81)) (or (or ?v_73 ?v_137) ?v_81)) (or (or ?v_9 ?v_39) ?v_138)) (or (or ?v_139 ?v_53) ?v_55)) (or (or ?v_31 ?v_36) ?v_38)) (or (or ?v_21 ?v_117) ?v_47)) (or (or ?v_95 ?v_128) ?v_9)) (or (or ?v_42 ?v_73) ?v_132)) (or (or ?v_65 ?v_20) ?v_131)) (or (or ?v_49 ?v_131) ?v_95)) (or (or ?v_53 ?v_74) ?v_91)) (or (or P9 P4) ?v_116)) (or (or ?v_53 ?v_140) ?v_141)) (or (or ?v_125 ?v_77) ?v_36)) (or (or P3 ?v_142) P29)) (or (or ?v_67 ?v_122) P17)) (or (or ?v_77 ?v_107) ?v_125)) (or (or ?v_141 ?v_132) P14)) (or (or ?v_4 ?v_50) ?v_143)) (or (or P28 ?v_55) ?v_93)) (or (or P21 P24) ?v_105)) (or (or P16 ?v_31) ?v_140)) (or (or ?v_48 ?v_16) P24)) (or (or ?v_35 ?v_118) ?v_138)) (or (or ?v_25 ?v_150) ?v_40)) (or (or ?v_46 ?v_22) P19)) (or (or ?v_10 ?v_14) ?v_69)) (or (or P0 ?v_80) ?v_36)) (or (or ?v_82 ?v_86) ?v_1)) (or (or ?v_106 ?v_97) ?v_130)) (or (or ?v_91 ?v_89) ?v_151)) (or (or ?v_129 P10) ?v_89)) (or (or ?v_126 ?v_111) ?v_43)) (or (or P13 ?v_114) ?v_91)) (or (or ?v_81 P3) ?v_61)) (or (or ?v_19 ?v_144) P14)) (or (or ?v_39 ?v_12) ?v_29)) (or (or ?v_67 ?v_2) ?v_30)) (or (or ?v_107 ?v_141) ?v_94)) (or (or ?v_126 ?v_60) ?v_95)) (or (or ?v_0 ?v_84) ?v_145)) (or (or ?v_79 ?v_143) ?v_127)) (or (or ?v_87 ?v_2) ?v_35)) (or (or ?v_59 ?v_50) ?v_20)) (or (or ?v_86 ?v_146) P5)) (or (or ?v_42 ?v_76) ?v_4)) (or (or ?v_125 ?v_106) ?v_65)) (or (or ?v_57 ?v_115) P23)) (or (or ?v_87 ?v_89) ?v_28)) (or (or P25 ?v_38) ?v_2)) (or (or ?v_79 ?v_79) ?v_117)) (or (or P29 ?v_80) ?v_123)) (or (or ?v_39 ?v_117) ?v_22)) (or (or ?v_34 P6) P16)) (or (or P13 ?v_132) ?v_27)) (or (or ?v_49 P20) P3)) (or (or P1 P5) ?v_74)) (or (or ?v_19 P18) P26)) (or (or ?v_133 ?v_34) ?v_138)) (or (or ?v_54 ?v_52) P29)) (or (or ?v_99 ?v_106) P27)) (or (or ?v_147 P1) ?v_5)) (or (or ?v_133 ?v_154) P14)) (or (or P23 ?v_140) ?v_57)) (or (or ?v_77 ?v_1) P2)) (or (or ?v_148 P17) ?v_145)) (or (or ?v_89 P4) ?v_149)) (or (or ?v_8 P9) P6)) (or (or ?v_129 P22) ?v_92)) (or (or ?v_101 ?v_47) ?v_62)) (or (or ?v_68 ?v_25) ?v_48)) (or (or ?v_139 ?v_95) ?v_101)) (or (or ?v_27 ?v_124) ?v_54)) (or (or ?v_1 ?v_82) ?v_139)) (or (or ?v_125 ?v_9) ?v_16)) (or (or ?v_0 P8) ?v_61)) (or (or ?v_73 ?v_97) P15)) (or (or ?v_140 ?v_150) ?v_87)) (or (or ?v_129 ?v_6) ?v_2)) (or (or ?v_81 ?v_47) P5)) (or (or ?v_105 ?v_135) ?v_35)) (or (or P11 ?v_55) ?v_152)) (or (or ?v_73 ?v_87) ?v_95)) (or (or ?v_101 ?v_54) ?v_80)) (or (or ?v_40 ?v_96) ?v_92)) (or (or ?v_99 ?v_67) ?v_2)) (or (or ?v_64 ?v_87) ?v_11)) (or (or ?v_62 ?v_28) ?v_34)) (or (or ?v_19 ?v_99) ?v_112)) (or (or ?v_138 ?v_52) ?v_145)) (or (or ?v_105 ?v_72) ?v_65)) (or (or ?v_119 ?v_105) ?v_151)) (or (or ?v_31 ?v_80) P23)) (or (or ?v_98 ?v_14) ?v_5)) (or (or P16 ?v_59) ?v_145)) (or (or ?v_139 ?v_91) ?v_45)) (or (or ?v_29 ?v_48) ?v_122)) (or (or (not P9) ?v_94) P12)) (or (or ?v_89 ?v_107) ?v_47)) (or (or P28 ?v_41) ?v_18)) (or (or ?v_150 ?v_22) P23)) (or (or ?v_1 ?v_21) ?v_129)) (or (or ?v_100 ?v_68) ?v_147)) (or (or ?v_91 ?v_0) ?v_94)) (or (or ?v_116 ?v_78) ?v_137)) (or (or ?v_107 P10) ?v_79)) (or (or ?v_87 ?v_22) ?v_5)) (or (or ?v_41 ?v_100) ?v_24)) (or (or ?v_81 ?v_6) ?v_88)) (or (or ?v_106 ?v_63) ?v_55)) (or (or P5 ?v_21) P2)) (or (or ?v_82 ?v_99) ?v_107)) (or (or P20 ?v_31) ?v_86)) (or (or ?v_4 ?v_28) ?v_75)) (or (or ?v_2 ?v_104) P18)) (or (or ?v_91 ?v_120) P5)) (or (or ?v_106 P8) ?v_129)) (or (or ?v_140 ?v_133) P0)) (or (or P15 P4) ?v_55)) (or (or ?v_39 P6) P14)) (or (or P22 ?v_5) ?v_1)) (or (or ?v_19 ?v_56) ?v_33)) (or (or ?v_103 ?v_118) ?v_135)) (or (or ?v_10 ?v_92) ?v_91)) (or (or ?v_113 ?v_53) ?v_18)) (or (or ?v_52 ?v_146) ?v_79)) (or (or ?v_38 ?v_113) ?v_26)) (or (or ?v_89 ?v_117) ?v_46)) (or (or ?v_81 ?v_10) P13)) (or (or ?v_145 ?v_48) ?v_105)) (or (or ?v_53 ?v_107) P1)) (or (or ?v_137 ?v_144) ?v_92)) (or (or ?v_21 ?v_51) P23)) (or (or ?v_62 ?v_104) ?v_68)) (or (or ?v_65 P9) ?v_23)) (or (or ?v_131 ?v_106) ?v_139)) (or (or ?v_64 P22) ?v_62)) (or (or ?v_142 ?v_44) ?v_152)) (or (or ?v_44 ?v_118) ?v_10)) (or (or P25 ?v_48) ?v_85)) (or (or ?v_5 ?v_120) ?v_46)) (or (or ?v_35 ?v_80) ?v_102)) (or (or ?v_105 ?v_51) ?v_55)) (or (or ?v_47 ?v_57) ?v_118)) (or (or ?v_14 ?v_69) ?v_63)) (or (or ?v_11 ?v_12) ?v_153)) (or (or ?v_9 ?v_111) ?v_62)) (or (or ?v_111 ?v_31) ?v_34)) (or (or ?v_141 ?v_34) ?v_77)) (or (or ?v_140 ?v_54) ?v_124)) (or (or ?v_76 P29) ?v_27)) (or (or ?v_77 ?v_129) ?v_123)) (or (or ?v_136 ?v_0) ?v_108)) (or (or ?v_2 ?v_65) ?v_109)) (or (or ?v_80 ?v_54) ?v_58)) (or (or ?v_30 ?v_105) ?v_146)) (or (or P14 ?v_113) ?v_139)) (or (or ?v_142 ?v_35) ?v_21)) (or (or ?v_8 P7) ?v_2)) (or (or ?v_29 ?v_104) ?v_53)) (or (or ?v_58 P2) ?v_42)) (or (or ?v_30 ?v_55) ?v_39)) (or (or ?v_104 ?v_124) P18)) (or (or ?v_143 ?v_33) ?v_49)) (or (or P13 ?v_56) ?v_127)) (or (or ?v_47 ?v_50) P27)) (or (or ?v_54 ?v_84) ?v_50)) (or (or P19 ?v_138) ?v_66)) (or (or ?v_63 ?v_0) ?v_105)) (or (or ?v_42 ?v_40) ?v_154)) (or (or P16 ?v_84) ?v_16)) (or (or ?v_95 ?v_36) ?v_69)) (or (or ?v_60 ?v_65) ?v_90)) (or (or P4 ?v_27) ?v_99)) (or (or ?v_125 P6) ?v_70)) (or (or ?v_124 ?v_77) ?v_53)) (or (or ?v_81 ?v_151) ?v_129)) (or (or ?v_92 ?v_49) ?v_70)) (or (or ?v_79 P2) ?v_66)) (or (or P14 ?v_85) ?v_108)) (or (or ?v_35 ?v_106) ?v_31)) (or (or ?v_92 ?v_129) P8)) (or (or ?v_34 ?v_100) ?v_140)) (or (or ?v_71 ?v_116) P25)) (or (or ?v_31 ?v_151) ?v_89)) (or (or ?v_116 ?v_46) ?v_64)) (or (or ?v_20 ?v_121) ?v_126)) (or (or P18 ?v_121) ?v_69)) (or (or ?v_141 ?v_121) P10)) (or (or ?v_70 ?v_125) ?v_42)) (or (or P14 ?v_127) ?v_14)) (or (or ?v_152 ?v_102) ?v_101)) (or (or ?v_2 ?v_69) ?v_96)) (or (or ?v_73 ?v_8) P6))))))))))))))))))))))))))
(check-sat)
(exit)
